%chk=step_20_freq_A.chk
%mem=16GB
%nprocshared=16
# pop=(full) cam-b3lyp/6-31+g(d) integral=grid=ultrafine scf=(conver=10,novaracc) td=(root=3,nstates=10) freq=(savenm,hpmodes) sym=com

Frequency calc, geometry taken from step_20_A.log

0 1
6	0.000000	0.000004	-4.138892
6	-0.000000	1.215294	-3.457608
6	0.000000	-1.215298	-3.457639
6	-0.000000	1.212617	-2.004770
6	-0.000000	-1.212626	-2.004816
6	-0.000000	-0.000022	-1.309778
6	-0.000000	4.733263	-5.450096
6	-0.000000	5.960917	-4.759704
6	0.000000	7.158169	-5.459625
6	-0.000000	7.158983	-6.854048
6	-0.000000	5.949281	-7.547997
6	-0.000000	4.746023	-6.858705
6	0.000000	3.505477	-4.742735
6	0.000000	2.431852	-4.155958
1	0.000000	5.957386	-3.674573
1	0.000000	8.098111	-4.915964
1	-0.000000	8.098460	-7.398107
1	-0.000000	5.946284	-8.633868
1	0.000000	3.803791	-7.396864
1	0.000000	0.000016	-5.224080
1	-0.000000	2.154005	-1.467440
1	-0.000000	-2.154003	-1.467508
6	0.000000	-4.733279	-5.450074
6	-0.000000	-5.960931	-4.759700
6	0.000000	-7.158172	-5.459620
6	0.000000	-7.158970	-6.854040
6	-0.000000	-5.949263	-7.547976
6	0.000000	-4.746019	-6.858675
6	-0.000000	-3.505507	-4.742711
6	0.000000	-2.431847	-4.155994
1	-0.000000	-5.957374	-3.674578
1	-0.000000	-8.098107	-4.915958
1	-0.000000	-8.098438	-7.398103
1	-0.000000	-5.946255	-8.633842
1	-0.000000	-3.803783	-7.396813
6	-0.000000	-0.000001	2.755187
6	-0.000000	-1.209977	3.470412
6	-0.000000	-1.210957	4.853026
6	0.000000	0.000001	5.570390
6	-0.000000	1.210959	4.853024
6	0.000000	1.209980	3.470408
6	0.000000	-0.000019	1.330924
6	-0.000000	-0.000032	0.119093
1	-0.000000	-2.147158	2.923629
1	0.000000	-2.149781	5.397234
1	0.000000	2.149782	5.397237
1	0.000000	2.147165	2.923631
6	-0.000000	-0.000000	6.991545
6	-0.000000	-0.000000	8.205876
6	-0.000000	-0.000000	9.630149
6	-0.000000	-1.210653	10.343540
6	0.000000	1.210653	10.343540
6	-0.000000	-1.205835	11.731298
1	0.000000	-2.147926	9.796523
6	0.000000	1.205835	11.731297
1	-0.000000	2.147926	9.796523
6	-0.000000	0.000000	12.430512
1	-0.000000	-2.147706	12.271732
1	0.000000	2.147706	12.271732
1	0.000000	0.000000	13.516340

